p cnf 100 40
x -1 -2 4 -7 -11 -14 -18 20 -21 -23 26 28 -31 33 34 -36 37 38 43 -44 -45 47 50 59 -62 66 -67 68 69 75 -80 82 -84 -86 95 -97 99 -100 0
x 3 4 -5 -6 -7 -8 -14 -16 -17 -21 -22 23 -28 -29 -31 -32 34 -35 -37 40 -42 -45 48 50 -51 52 -54 -55 -58 59 60 64 -65 -67 69 73 74 -76 -78 80 -81 -82 85 89 -90 -92 93 95 96 97 98 -99 0
x 4 -5 7 11 -12 -18 -19 -20 -24 -27 32 37 38 39 -42 45 -47 52 55 -58 -59 60 -62 -63 -66 67 -68 -73 -74 78 -79 80 -82 83 -86 -87 89 -92 93 94 -95 96 0
x -1 5 7 -8 13 15 -17 20 -25 28 -30 -31 -32 33 -34 -37 39 42 -44 -47 -49 -50 54 -57 59 62 -64 -68 -70 -73 75 78 -81 82 83 -84 -85 -91 92 -93 95 96 98 100 0
x -1 2 4 -5 6 7 9 10 11 -13 -14 -15 -18 -22 26 27 -29 -30 -31 32 -33 38 -40 41 -44 45 -48 -49 51 53 -55 56 -59 -60 63 65 66 -67 -68 -70 72 -73 -75 76 78 79 80 83 -85 -89 90 -93 95 96 -97 0
x 2 -8 -11 -12 -15 20 -21 -22 26 28 32 37 -39 41 42 43 44 -48 -50 51 -54 57 58 -65 -67 -68 -73 76 -77 -79 -84 -85 -86 -87 -89 92 93 -94 -95 -97 98 -99 0
x 1 -3 5 -8 9 11 -12 14 -15 16 18 19 -22 -23 25 -28 30 33 34 37 -38 39 40 -41 -44 -45 47 48 -49 50 53 -54 55 57 -60 -63 64 66 -70 71 74 -75 -76 78 -79 -82 85 86 -87 88 89 -90 -92 94 -95 96 -97 -99 0
x 2 3 7 -9 -11 -12 14 15 -16 18 19 20 22 -23 -25 27 28 -30 -32 -33 -35 -37 -39 -40 41 46 49 50 -51 -55 57 -58 -59 65 67 -68 69 -71 72 -75 76 -77 78 80 81 -84 87 88 89 90 -92 93 -94 95 97 -99 0
x 1 -3 -5 -10 16 20 21 -23 -25 -31 -33 -38 39 42 46 -47 48 -50 -53 55 56 -59 -67 68 69 71 72 -73 74 83 -87 88 -89 91 92 93 -95 96 99 0
x 5 6 -7 -9 -10 -11 14 -18 -21 -23 -25 -26 -27 28 -30 32 36 -37 44 -45 -49 51 56 -58 -59 60 61 62 63 -64 66 69 -73 -74 -75 78 82 84 85 87 88 -90 -91 92 -96 97 -98 99 -100 0
x 3 7 8 -9 -13 -15 -17 -18 -20 -21 22 -23 25 27 32 33 -34 -36 37 42 47 49 -52 -56 -57 -61 63 64 66 -67 68 71 75 76 -78 79 82 -85 -88 -90 91 -92 -93 97 100 0
x 2 -4 6 7 -8 -10 -12 -14 -16 -17 -18 -19 -21 22 24 28 -30 -31 -32 -33 35 -37 38 -40 42 43 -45 46 -47 48 -49 -50 51 53 54 55 -56 57 -59 60 -62 64 -65 -67 68 69 -71 72 76 -83 -90 91 -92 -94 -95 96 97 -99 100 0
x -3 -5 7 9 -12 13 14 -15 17 -19 -20 -25 27 29 -32 33 -34 36 -37 38 42 -45 -47 -49 50 51 -52 55 -56 -57 58 59 61 62 63 -64 -65 67 69 -73 75 78 82 -90 91 -92 -96 -97 -100 0
x -1 2 4 -6 7 -8 10 12 -18 -22 -23 -25 -28 -32 33 -35 -37 40 -42 -43 45 46 -47 -49 50 54 55 57 58 -59 61 62 -63 65 -66 -68 -71 -73 -76 -80 -81 82 -83 -84 -85 -88 90 91 -95 99 0
x 2 3 4 -8 9 -10 -13 14 15 -16 -17 -18 -23 30 31 33 -34 35 38 -39 42 -43 45 46 49 -50 -51 56 59 -62 64 -65 66 68 -70 74 77 -80 -81 83 -85 86 -88 -89 94 96 97 -99 0
x -1 -2 -4 5 6 7 9 -11 12 -13 14 15 -18 21 22 -25 -26 -37 40 -42 47 -51 52 55 -57 -59 -61 -62 -66 -68 69 73 -76 -78 80 81 -85 89 -93 -95 96 100 0
x -2 5 6 9 -10 13 -14 -18 -19 -20 -23 24 25 28 -30 -31 32 33 35 36 -40 -43 -47 -48 50 52 56 57 59 -61 -63 69 -75 -77 -78 79 -80 82 -86 87 -88 89 -90 98 -100 0
x -1 5 6 -7 10 -12 17 18 21 22 23 24 -26 27 29 30 -31 32 -33 36 37 38 -40 -41 -42 43 -44 -45 48 -50 51 -53 54 -55 56 -58 63 -65 -67 68 70 -72 75 76 -78 79 82 -84 -86 89 91 92 -93 97 -99 0
x 1 -4 -6 -8 12 -19 21 24 -25 26 32 33 -35 -36 -37 41 42 44 46 -47 -48 49 -50 52 53 55 56 -58 -59 -66 -69 -70 74 -75 76 80 -82 -84 85 87 90 -91 -92 -94 -95 -96 97 -98 99 0
x 2 -6 -7 10 -11 -17 -22 24 -25 30 31 -32 -33 -35 37 -39 -40 42 44 -45 47 -48 -51 54 55 -56 58 -59 -64 -65 -68 69 -71 72 -74 75 77 -81 -86 89 -92 94 95 -99 100 0
x 2 -3 -4 5 9 -10 12 15 16 17 19 -20 -22 23 26 -29 31 36 38 40 47 50 52 -55 56 62 -64 -77 79 81 -84 86 -89 90 -91 92 -93 -96 97 -98 -99 100 0
x -9 -10 11 12 -13 14 -16 21 22 -25 26 -31 -32 -33 -35 36 -37 -42 43 -44 47 -48 -53 -55 -59 -63 -64 -65 67 -68 69 -70 73 74 75 -76 77 -79 -80 -87 -91 -92 -94 96 -97 99 100 0
x 6 8 9 -11 -14 16 17 -18 -19 20 -21 -22 23 -24 -25 -28 30 -33 34 35 -39 40 41 -44 -45 -46 -49 -50 51 -53 54 55 56 -57 59 -60 -65 -67 69 -71 -72 -73 74 75 -76 77 78 80 82 -83 85 -86 -87 91 94 95 97 -98 99 0
x 2 3 4 -6 -9 -15 -16 18 19 23 -26 27 29 30 32 -33 35 -39 40 -42 -43 -44 -47 -49 -53 -54 -58 -60 61 -62 64 68 -72 76 77 -80 -81 -87 -89 92 93 95 -96 97 98 0
x -3 4 -5 8 -9 -11 -12 -14 -15 19 23 24 25 -28 30 -31 36 41 -43 -46 50 51 -54 -56 57 58 60 -62 -64 65 -67 -68 70 -71 72 75 -78 80 83 85 -87 88 -89 92 93 95 98 -99 100 0
x -1 -2 -5 -7 9 -10 11 -12 13 15 16 17 -19 23 25 27 28 -31 32 -33 -35 37 39 41 -44 -47 52 -53 54 55 59 -61 62 -63 68 69 70 72 -75 -78 -79 -81 -86 89 90 91 -93 -94 95 97 -99 0
x 3 9 10 -12 -13 15 16 -17 20 -23 25 32 -35 38 -39 -47 48 50 -51 -53 -55 -59 60 65 -68 -69 70 -72 -73 75 -76 -79 -80 88 -89 91 92 94 -95 -96 97 99 -100 0
x -2 4 7 10 -13 14 -15 -18 -19 -20 21 23 -24 26 31 35 -37 -39 41 -42 43 -44 46 48 -51 -52 57 59 -60 -61 -63 70 73 74 -75 -76 79 80 81 83 -86 -90 -93 -95 -96 -97 98 -99 0
x 2 3 4 -5 6 -8 -10 11 14 15 18 -20 -21 -24 27 -29 -33 -37 -39 -41 42 -43 46 -49 50 -52 -53 55 57 59 66 -67 -68 69 73 -74 80 82 83 -84 -85 -86 87 88 89 92 94 95 -97 -99 0
x -3 7 -8 10 -11 12 13 16 -17 18 -19 -20 22 -23 -24 25 -26 27 -30 -32 35 -36 -38 39 -42 -43 44 -45 47 -51 54 55 -57 59 63 -64 65 -66 -67 69 70 72 78 79 81 83 84 86 -87 -88 -90 91 -94 96 -97 -98 -99 -100 0
x -3 -6 -7 -9 -10 13 14 23 25 -26 -27 -28 -29 30 32 33 34 35 -36 -37 38 39 -41 -43 44 -48 -56 -57 -58 -59 62 -64 -67 68 -71 -73 74 80 83 -84 -85 86 -89 90 91 92 -95 -96 -98 0
x -2 -5 6 7 -9 12 13 14 -16 17 19 20 21 22 25 28 -29 -34 38 40 42 44 -47 -49 50 -52 54 57 -58 60 -62 64 65 -66 -68 69 -73 -76 -77 80 -81 -82 -83 -85 88 89 -91 92 93 -94 -96 -98 99 0
x -2 -3 4 5 -6 7 -8 -10 12 -14 -17 22 -24 25 -30 -32 34 -37 -38 -42 -44 47 48 -50 -51 54 56 57 -58 59 -60 -63 -64 -66 67 70 -72 75 -76 81 82 -84 -88 89 -91 94 -95 98 99 0
x 1 9 -12 -15 16 -18 20 -21 -22 -24 26 27 -29 30 31 -32 33 -39 40 41 -44 45 -50 -51 57 60 63 64 -65 66 -70 -71 -72 -79 80 82 85 87 -90 -93 -97 -98 -100 0
x -5 -6 8 -9 -12 -13 -15 -17 21 -22 27 -29 -32 -33 37 41 -42 -45 -47 -55 -56 57 -59 -63 -66 67 -68 -74 -75 -77 78 79 81 83 -86 -87 -89 -91 92 94 -98 99 0
x 1 -3 -4 5 7 8 -9 10 11 -12 14 16 -19 -20 21 23 -28 -29 -30 -37 -38 -40 42 -43 44 46 -47 -48 -50 51 52 53 56 -57 58 59 -60 63 64 -65 66 -68 -70 72 -73 -75 -76 -77 79 83 -87 -91 -95 96 99 0
x -1 2 -3 -4 5 7 -10 13 -17 18 19 -21 23 25 -26 28 -30 31 -32 34 -35 38 42 43 48 -53 -54 -55 56 57 -62 -64 67 68 -69 70 -71 72 73 76 77 79 -80 -82 83 -84 85 88 -91 -93 -94 -100 0
x 4 8 -9 13 14 15 -16 20 -21 -23 -24 -25 -28 30 32 34 36 -38 39 -42 -44 45 -46 -48 49 52 -53 54 55 -56 -58 -59 60 -62 -63 65 66 72 -73 76 80 81 -82 -84 85 87 88 90 -91 92 -93 94 96 99 0
x -2 3 -4 -6 8 10 11 -20 21 23 24 -29 30 -34 -35 -38 39 -42 44 50 -52 60 -61 -66 -67 68 69 70 -71 -72 -73 74 -75 77 -79 -83 -84 86 -87 89 90 -92 -94 97 -98 0
x 2 -3 5 6 7 8 11 13 -18 21 23 24 25 26 27 28 -30 33 35 39 40 41 47 48 -50 51 54 55 -58 -60 61 63 -65 -66 67 -68 -69 -70 72 -73 -75 -76 -79 81 -82 83 -85 -87 -88 89 -90 91 94 -96 -97 99 0
g -20